cpu-bind=MASK - n2lcn0125, task  0  0 [3873274]: mask |--------|--------||--------|--------||--------|--------||--------|--------||||--------|--------||--------|--------||--------|--------||BBBB----|--------|  set
started at Fri Mar 17 08:50:50 CET 2023
Timecheck 10001007.596707346
Set parameter TokenServer to value "license3.uni-paderborn.de"
Warning: Gurobi version mismatch between Python 10.0.1 and C library 10.0.0
Timecheck 10001007.612120448
Timecheck 10001007.612333238
Timecheck 10001007.612364229
Timecheck 10001007.612384848


####################################################################################################
Solve scenario sce_5_26_3 with free vessel operation using the arc flow model
Vessels cannot omit ports, Demands cannot be rejected
####################################################################################################
Data preprocessing, load /upb/departments/pc2/groups/hpc-prf-winf4/dwetzel/SILSRP/inst_final/sce_5_26_3
and create additional sets and parameters
	|- Read vessel information, number of vessels:	12
	|- Read node information, number of nodes:		557
	|- Read arc information
		|- Number of sailing arcs:			3267
		|- Number of transshipment arcs:	1079
	|- Read container information
		|- Number of demands:		1704
		|- Number of empties (+/-):	260/226
	|- Create additional sets and parameters

Data preprocessing took 	00:00:01.125
####################################################################################################
Create linear model
Set parameter Threads to value 4
	|- Create variables, took	00:00:01.982
	|- Create objective, took	00:00:01.281
	|- Create constraints, took	00:00:05.230
	|- Load heuristic start

Creating model took	00:00:09.335
####################################################################################################
Fix start solution

Set parameter TimeLimit to value 6.8051468114664778e+04
Gurobi Optimizer version 10.0.0 build v10.0.0rc2 (linux64)

CPU model: AMD EPYC 7763 64-Core Processor, instruction set [SSE2|AVX|AVX2]
Thread count: 128 physical cores, 128 logical processors, using up to 4 threads

Optimize a model with 92538 rows, 477524 columns and 1589830 nonzeros
Model fingerprint: 0xd7379336
Variable types: 436072 continuous, 41452 integer (41452 binary)
Coefficient statistics:
  Matrix range     [1e+00, 3e+06]
  Objective range  [1e+00, 1e+00]
  Bounds range     [1e+00, 3e+02]
  RHS range        [1e+00, 8e+08]
Presolve removed 81708 rows and 443965 columns
Presolve time: 1.21s
Presolved: 10830 rows, 33559 columns, 89577 nonzeros
Variable types: 32138 continuous, 1421 integer (1416 binary)

Root relaxation: objective 3.203138e+07, 3260 iterations, 0.05 seconds (0.04 work units)

    Nodes    |    Current Node    |     Objective Bounds      |     Work
 Expl Unexpl |  Obj  Depth IntInf | Incumbent    BestBd   Gap | It/Node Time

*    0     0               0    3.203138e+07 3.2031e+07  0.00%     -    1s

Explored 1 nodes (3260 simplex iterations) in 1.52 seconds (1.38 work units)
Thread count was 4 (of 128 available processors)

Solution count 1: 3.20314e+07 

Optimal solution found (tolerance 1.00e-04)
Best objective 3.203137600000e+07, best bound 3.203137600000e+07, gap 0.0000%

Fixing start solution took	00:00:11.043
####################################################################################################
####################################################################################################
Solve optimization model

Set parameter TimeLimit to value 6.8049903657384217e+04
Gurobi Optimizer version 10.0.0 build v10.0.0rc2 (linux64)

CPU model: AMD EPYC 7763 64-Core Processor, instruction set [SSE2|AVX|AVX2]
Thread count: 128 physical cores, 128 logical processors, using up to 4 threads

Optimize a model with 91982 rows, 477524 columns and 1589274 nonzeros
Model fingerprint: 0x2bdc1308
Variable types: 436072 continuous, 41452 integer (41452 binary)
Coefficient statistics:
  Matrix range     [1e+00, 3e+06]
  Objective range  [1e+00, 1e+00]
  Bounds range     [1e+00, 3e+02]
  RHS range        [1e+00, 8e+08]

Loaded MIP start from previous solve with objective 3.20314e+07

Presolve removed 8769 rows and 16648 columns (presolve time = 5s) ...
Presolve removed 8890 rows and 16654 columns
Presolve time: 5.34s
Presolved: 83092 rows, 460870 columns, 1323758 nonzeros
Variable types: 422756 continuous, 38114 integer (38113 binary)
Deterministic concurrent LP optimizer: primal simplex, dual simplex, and barrier
Showing barrier log only...

Root barrier log...

Elapsed ordering time = 5s
Ordering time: 7.76s

Barrier statistics:
 AA' NZ     : 1.215e+06
 Factor NZ  : 2.276e+07 (roughly 400 MB of memory)
 Factor Ops : 2.496e+10 (less than 1 second per iteration)
 Threads    : 2

                  Objective                Residual
Iter       Primal          Dual         Primal    Dual     Compl     Time
   0   1.73076546e+16 -1.68250086e+16  1.99e+10 6.68e+04  1.12e+14    16s
   1   4.70282824e+15 -3.80301068e+15  4.83e+09 5.12e+03  2.74e+13    16s
   2   4.12965351e+14 -9.37524577e+14  4.22e+08 7.68e-09  2.40e+12    17s
   3   4.69727572e+13 -1.97709528e+14  4.78e+07 4.84e-08  2.75e+11    18s
   4   6.83789959e+12 -4.81248572e+13  6.94e+06 1.26e-08  4.05e+10    19s
   5   1.11665690e+12 -1.14790665e+13  1.13e+06 1.89e-08  6.67e+09    19s
   6   1.62591992e+11 -4.62014479e+12  1.64e+05 1.32e-08  9.81e+08    20s
   7   2.38558876e+10 -2.89294297e+12  2.40e+04 9.08e-09  1.46e+08    21s
   8   2.80226893e+09 -2.25471615e+12  2.74e+03 7.80e-09  1.87e+07    22s
   9   5.92122004e+08 -1.31418792e+12  4.60e+02 2.12e-08  3.83e+06    23s
  10   2.75092953e+08 -6.09077934e+11  1.43e+02 1.14e-08  1.25e+06    23s
  11   1.92958280e+08 -3.52715979e+11  6.48e+01 9.84e-09  6.17e+05    24s
  12   1.53508987e+08 -2.10795797e+11  3.18e+01 9.87e-08  3.33e+05    25s
  13   1.23839859e+08 -1.46467589e+11  1.28e+01 9.13e-08  1.98e+05    25s
  14   1.07158496e+08 -5.41620404e+10  4.71e+00 5.77e-08  6.95e+04    26s
  15   8.29576743e+07 -1.61913968e+10  1.16e+00 5.64e-08  1.91e+04    27s
  16   7.30975473e+07 -3.87881334e+09  1.85e-01 2.29e-08  4.36e+03    28s
  17   5.47398761e+07 -7.71810357e+08  1.59e-02 3.50e-08  8.97e+02    29s
  18   4.77598528e+07 -3.13298550e+08  4.86e-03 1.62e-08  3.91e+02    29s
  19   4.34284289e+07 -1.46297601e+08  2.41e-03 5.88e-08  2.06e+02    30s
  20   4.13388166e+07 -8.81900033e+07  1.78e-03 2.09e-08  1.40e+02    31s
  21   3.89646443e+07 -5.15763226e+07  1.24e-03 1.44e-07  9.82e+01    31s
  22   3.53032825e+07 -2.42143939e+07  6.28e-04 1.32e-07  6.45e+01    32s
  23   3.28334640e+07 -4.44002791e+06  3.35e-04 1.55e-07  4.04e+01    33s
  24   3.06040259e+07  5.58146750e+06  1.47e-04 2.58e-07  2.71e+01    33s
  25   2.90828834e+07  1.36007456e+07  7.50e-05 7.70e-08  1.68e+01    34s
  26   2.78660181e+07  1.78370210e+07  4.10e-05 3.13e-07  1.09e+01    35s
  27   2.72320831e+07  2.09538713e+07  2.81e-05 3.04e-07  6.80e+00    36s
  28   2.65447043e+07  2.22192618e+07  1.61e-05 3.21e-07  4.68e+00    37s
  29   2.61666164e+07  2.29699482e+07  1.06e-05 3.53e-07  3.46e+00    37s
  30   2.58587030e+07  2.38902399e+07  6.56e-06 1.96e-07  2.13e+00    38s
  31   2.56794953e+07  2.43002937e+07  4.55e-06 4.72e-07  1.49e+00    39s
  32   2.54801597e+07  2.45800590e+07  2.35e-06 5.48e-07  9.74e-01    40s
  33   2.53468847e+07  2.49629617e+07  1.07e-06 3.12e-07  4.16e-01    40s
  34   2.53077299e+07  2.50840072e+07  8.04e-07 3.15e-07  2.42e-01    41s
  35   2.52719624e+07  2.51488624e+07  5.45e-07 8.76e-07  1.33e-01    42s
  36   2.52505756e+07  2.51939670e+07  2.83e-07 6.22e-07  6.14e-02    43s
  37   2.52372192e+07  2.52105975e+07  1.13e-07 3.34e-07  2.89e-02    43s
  38   2.52298032e+07  2.52222928e+07  5.64e-08 1.33e-06  8.14e-03    44s
  39   2.52285568e+07  2.52268083e+07  1.46e-08 9.93e-06  1.90e-03    45s
  40   2.52281824e+07  2.52278149e+07  1.25e-09 4.32e-06  3.98e-04    46s
  41   2.52281618e+07  2.52280968e+07  2.82e-09 2.12e-03  7.03e-05    47s
  42   1.73076543e+16 -1.68372549e+17  1.99e+10 5.60e+03  1.12e+15    48s
  43   3.56526027e+15 -1.81909596e+16  3.67e+09 4.27e-08  1.47e+14    49s
  44   3.65957521e+14 -2.76411092e+15  3.76e+08 4.29e-08  1.17e+13    49s
  45   4.75091506e+13 -4.87815195e+14  4.89e+07 4.82e-08  1.27e+12    50s
  46   6.09728674e+12 -1.00145698e+14  6.29e+06 3.05e-08  1.37e+11    51s
  47   9.06909284e+11 -2.32831918e+13  9.47e+05 2.20e-08  1.65e+10    52s
  48   1.17599781e+11 -6.60131738e+12  1.28e+05 1.51e-08  1.19e+09    53s
  49   1.33221286e+10 -1.96598083e+12  1.62e+04 6.23e-09  6.53e+07    54s
  50   1.24744178e+09 -2.69090487e+11  1.79e+03 1.81e-09  1.77e+06    54s
  51   5.48680121e+08 -1.03248163e+11  7.65e+02 2.52e-09  4.47e+05    55s
  52   2.41227194e+08 -5.17723155e+10  2.40e+02 3.04e-09  1.23e+05    56s
  53   1.53447865e+08 -2.23805150e+10  1.06e+02 1.34e-09  4.44e+04    57s
  54   1.25384188e+08 -1.53846965e+10  6.94e+01 1.75e-09  2.82e+04    57s
  55   9.31010026e+07 -1.04942627e+10  3.40e+01 2.90e-09  1.64e+04    58s
  56   7.21827029e+07 -6.45278756e+09  1.41e+01 2.87e-09  8.83e+03    59s
  57   5.87726918e+07 -2.37048037e+09  5.19e+00 4.81e-09  3.08e+03    60s
  58   4.98115596e+07 -6.84330665e+08  1.19e+00 1.07e-08  8.42e+02    60s
  59   4.28618875e+07 -1.80445504e+08  1.85e-01 3.83e-08  2.45e+02    61s
  60   3.87011972e+07 -7.12875611e+07  8.70e-02 4.56e-08  1.20e+02    62s
  61   3.49195390e+07 -2.85323727e+07  4.77e-02 1.59e-07  6.90e+01    63s
  62   3.28879098e+07 -6.90441177e+06  2.96e-02 1.28e-07  4.33e+01    64s
  63   3.17048954e+07  6.61334079e+05  2.20e-02 9.36e-08  3.37e+01    64s
  64   2.97694149e+07  8.77058640e+06  1.16e-02 2.10e-07  2.28e+01    65s
  65   2.81561111e+07  1.36705814e+07  5.97e-03 3.27e-07  1.57e+01    66s
  66   2.69180014e+07  1.80856900e+07  2.59e-03 1.59e-06  9.57e+00    67s
  67   2.61362520e+07  2.19156748e+07  1.16e-03 4.13e-06  4.57e+00    68s
  68   2.57627082e+07  2.28872276e+07  6.03e-04 2.76e-06  3.11e+00    69s
  69   2.55206585e+07  2.37392367e+07  2.92e-04 4.19e-06  1.93e+00    69s
  70   2.54059802e+07  2.43959590e+07  1.64e-04 1.56e-05  1.09e+00    70s
  71   2.53533382e+07  2.45768766e+07  1.13e-04 1.39e-05  8.40e-01    71s
  72   2.52958493e+07  2.48896366e+07  5.65e-05 1.62e-05  4.40e-01    72s
  73   2.52614634e+07  2.50870684e+07  2.64e-05 3.92e-05  1.89e-01    73s
  74   2.52386913e+07  2.51849652e+07  7.39e-06 1.17e-04  5.82e-02    74s
  75   2.52338993e+07  2.51959411e+07  7.69e-06 1.43e-04  4.11e-02    75s
  76   2.52293400e+07  2.52190584e+07  1.17e-06 1.55e-04  1.11e-02    76s
  77   2.52287747e+07  2.52260631e+07  5.36e-07 2.21e-03  2.94e-03    77s
  78   2.52283748e+07  2.52272236e+07  2.35e-07 9.49e-04  1.25e-03    78s
  79   2.52282079e+07  2.52278186e+07  5.77e-08 4.03e-03  4.21e-04    79s
  80   2.52281701e+07  2.52279849e+07  1.52e-08 2.97e-03  2.00e-04    79s
  81   2.52281643e+07  2.52282915e+07  2.51e-07 1.20e+01  2.70e-04    80s
  82   2.52281604e+07  2.52281610e+07  6.67e-09 5.35e-02  1.54e-06    81s
  83   2.52281604e+07  2.52281481e+07  6.52e-09 5.36e-02  1.54e-06    82s
  84   2.52281604e+07  2.52281482e+07  8.84e-09 5.31e-02  1.53e-06    83s
  85   2.52281604e+07  2.52281481e+07  6.24e-09 5.30e-02  1.53e-06    84s
  86   2.52281604e+07  2.52281482e+07  8.54e-09 5.16e-02  1.52e-06    85s
  87   2.52281604e+07  2.52281492e+07  9.20e-09 4.53e-02  1.47e-06    86s
  88   2.52281604e+07  2.52281489e+07  7.55e-09 4.51e-02  1.43e-06    87s
  89   2.52281602e+07  2.52281492e+07  5.98e-10 4.38e-02  1.22e-06    87s
  90   2.52281602e+07  2.52283158e+07  5.91e-10 5.87e+01  2.88e-07    88s
  91   2.52281602e+07  2.52283207e+07  3.42e-10 8.52e+01  2.82e-07    89s
  92   2.52281602e+07  2.52283904e+07  4.31e-10 2.24e+02  1.14e-07    90s
  93   2.52281602e+07  2.52283386e+07  5.84e-10 1.65e+02  9.67e-08    91s
  94   2.52281602e+07  2.52279954e+07  2.76e-10 4.33e+02  4.84e-08    92s
  95   2.52281602e+07  2.52271236e+07  3.96e-10 3.38e+02  2.43e-08    93s
  96   2.52281602e+07  2.52277763e+07  2.65e-10 1.10e+03  2.15e-08    94s
  97   2.52281602e+07  2.52195809e+07  2.84e-10 7.86e+02  1.08e-08    95s
  98   2.52281602e+07  2.52212240e+07  5.25e-10 6.07e+02  1.01e-08    96s
  99   2.52281602e+07  2.52327977e+07  3.55e-10 1.39e+03  5.07e-09    96s
 100   2.52281602e+07  2.52545590e+07  2.47e-10 9.10e+02  2.59e-09    97s
 101   2.52281602e+07  2.51500801e+07  6.35e-10 2.14e+03  5.25e-11    98s
 102   2.52281602e+07  2.52197178e+07  5.35e-10 6.05e+02  6.84e-12    99s
 103   2.52281602e+07  2.52189734e+07  3.32e-10 8.02e+02  3.91e-12   100s
 104   2.52281602e+07  2.52175932e+07  2.09e-10 2.18e+02  2.54e-12   102s
 105   2.52281602e+07  2.52133730e+07  1.20e-10 3.17e+02  2.06e-12   102s
 106   2.52281602e+07  2.52139124e+07  2.33e-10 7.34e+02  1.54e-12   103s
 107   2.52281602e+07  2.51910249e+07  1.81e-10 9.06e+02  1.21e-12   104s
 108   2.52281602e+07  2.51927320e+07  1.70e-10 7.33e+02  1.07e-12   105s
 109   2.52281602e+07  2.51783922e+07  1.46e-10 6.49e+02  8.83e-13   106s
 110   2.52281602e+07  2.51800057e+07  1.30e-10 8.58e+02  7.72e-13   107s
 111   2.52281602e+07  2.51798994e+07  9.70e-11 8.58e+02  7.58e-13   108s
 112   2.52281602e+07  2.51803025e+07  9.20e-11 8.56e+02  7.39e-13   109s
 113   2.52281602e+07  2.51558643e+07  7.00e-11 1.09e+03  5.79e-13   109s
 114   2.52281602e+07  2.51112651e+07  5.07e-11 1.49e+03  4.66e-13   110s
 115   2.52281602e+07  2.51271632e+07  4.55e-11 1.29e+03  4.09e-13   111s
 116   2.52281602e+07  2.51542399e+07  4.43e-11 1.40e+03  3.33e-13   112s
 117   2.52281602e+07  2.51564766e+07  3.85e-11 1.45e+03  2.99e-13   113s
 118   2.52281602e+07  2.51378697e+07  3.68e-11 1.50e+03  2.70e-13   114s
 119   2.52281602e+07  2.50305835e+07  3.52e-11 2.26e+03  2.36e-13   115s
 120   2.52281602e+07  2.50030391e+07  3.13e-11 2.43e+03  2.27e-13   116s
 121   2.52281602e+07  2.50029878e+07  2.68e-11 2.43e+03  2.26e-13   117s
 122   2.52281602e+07  2.50065234e+07  2.36e-11 2.35e+03  2.18e-13   118s
 123   2.52281602e+07  2.12019644e+07  2.32e-11 1.97e+04  2.02e-13   119s
 124   2.52281602e+07  2.11758011e+07  2.26e-11 1.90e+04  1.93e-13   120s
 125   2.52281602e+07  2.14181500e+07  2.06e-11 1.81e+04  1.81e-13   121s
 126   2.52281602e+07  2.16142168e+07  1.98e-11 1.71e+04  1.71e-13   122s
 127   2.52281602e+07  2.17003231e+07  1.92e-11 1.67e+04  1.65e-13   123s
 128   2.52281602e+07  2.18733429e+07  1.87e-11 1.58e+04  1.56e-13   123s
 129   2.52281602e+07  2.19246865e+07  1.96e-11 1.55e+04  1.53e-13   124s
 130   2.52281602e+07  2.19619882e+07  1.88e-11 1.54e+04  1.51e-13   125s
 131   2.52281602e+07  2.19629008e+07  1.85e-11 1.53e+04  1.51e-13   126s
 132   2.52281602e+07  2.20816122e+07  1.65e-11 1.46e+04  1.44e-13   127s
 133   2.52281602e+07  3.57065097e+07  1.60e-11 5.60e+04  1.36e-13   128s
 134   2.52281602e+07  3.52373159e+07  1.61e-11 5.34e+04  1.29e-13   129s
 135   2.52281602e+07  3.51394490e+07  1.56e-11 5.10e+04  1.26e-13   130s
 136   2.52281602e+07  3.47976028e+07  1.53e-11 4.91e+04  1.21e-13   130s
 137   2.52281602e+07  3.45722951e+07  1.52e-11 4.80e+04  1.18e-13   131s
 138   2.52281602e+07  3.41288999e+07  1.59e-11 4.57e+04  1.12e-13   132s
 139   2.52281602e+07  3.40430904e+07  1.49e-11 4.20e+04  1.05e-13   133s
 140   2.52281602e+07  3.34269212e+07  1.90e-11 3.92e+04  9.67e-14   134s
 141   2.52281602e+07  3.28614222e+07  1.81e-11 3.64e+04  8.99e-14   135s
 142   2.52281602e+07  3.30227920e+07  1.69e-11 3.40e+04  8.43e-14   136s
 143   2.52281602e+07  3.29869556e+07  6.29e-11 3.37e+04  8.37e-14   137s
 144   2.52281602e+07  3.28751042e+07  4.86e-11 3.32e+04  8.07e-14   138s
 145   2.52281602e+07  2.61309581e+07  4.83e-11 2.96e+04  7.86e-14   139s
 146   2.52281602e+07  2.62125436e+07  4.65e-11 2.91e+04  7.58e-14   140s
 147   2.52281602e+07  2.61837753e+07  4.57e-11 2.83e+04  7.20e-14   141s
 148   2.52281602e+07  2.61884974e+07  4.44e-11 2.71e+04  6.71e-14   142s
 149   2.52281602e+07  2.61291940e+07  4.29e-11 2.51e+04  6.19e-14   143s
 150   2.52281602e+07  2.61063737e+07  4.19e-11 2.45e+04  5.98e-14   144s
 151   2.52281602e+07  2.61104663e+07  4.65e-11 2.30e+04  5.69e-14   145s
 152   2.52281602e+07  2.61220507e+07  4.76e-11 2.27e+04  5.63e-14   145s
 153   2.52281602e+07  2.61040499e+07  4.63e-11 2.20e+04  5.38e-14   146s
 154   2.52281602e+07  2.61884801e+07  4.30e-11 2.10e+04  5.19e-14   147s
 155   2.52281602e+07  2.51994567e+07  4.07e-11 2.45e+04  4.72e-14   148s
 156   2.52281602e+07  2.57185222e+07  3.90e-11 2.37e+04  4.40e-14   149s
 157   2.52281602e+07  2.08423612e+07  3.99e-11 3.98e+04  3.99e-14   150s
 158   2.52281602e+07  2.10577485e+07  3.84e-11 3.78e+04  3.82e-14   151s
 159   2.52281602e+07  2.11693992e+07  3.76e-11 3.68e+04  3.72e-14   152s
 160   2.52281602e+07  2.12630536e+07  3.52e-11 3.53e+04  3.54e-14   153s
 161   2.52281602e+07  2.29825127e+07  3.48e-11 3.47e+04  3.44e-14   153s
 162   2.52281602e+07  2.28838210e+07  3.40e-11 3.56e+04  3.33e-14   154s
 163   2.52281602e+07  2.30045989e+07  3.48e-11 3.40e+04  3.18e-14   155s
 164   2.52281602e+07  2.30330183e+07  5.77e-11 3.21e+04  3.02e-14   156s
 165   2.52281602e+07  2.31405276e+07  5.17e-11 2.75e+04  2.79e-14   157s
 166   2.52281602e+07  2.29309273e+07  4.93e-11 4.41e+04  2.50e-14   158s
 167   2.52281602e+07  2.29847072e+07  4.84e-11 4.34e+04  2.49e-14   159s
 168   2.52281602e+07  2.30758237e+07  4.52e-11 4.15e+04  2.37e-14   160s
 169   2.52281602e+07  2.39871180e+07  5.36e-11 3.36e+04  2.24e-14   161s
 170   2.52281602e+07  2.39924290e+07  5.31e-11 3.32e+04  2.21e-14   162s
 171   2.52281602e+07  2.40128729e+07  5.24e-11 3.26e+04  2.18e-14   163s
 172   2.52281602e+07  2.40331108e+07  5.10e-11 3.19e+04  2.13e-14   163s
 173   2.52281602e+07  2.36398257e+07  5.04e-11 3.14e+04  2.09e-14   165s
 174   2.52281602e+07  2.32749180e+07  5.02e-11 3.13e+04  2.01e-14   166s
 175   2.52281602e+07  2.42610946e+07  4.98e-11 3.21e+04  1.94e-14   167s
 176   2.52281602e+07  2.43073486e+07  4.88e-11 3.05e+04  1.89e-14   168s
 177   2.52281602e+07  2.51694389e+07  4.81e-11 3.31e+04  1.84e-14   169s
 178   2.52281602e+07  2.51713283e+07  4.79e-11 3.25e+04  1.81e-14   170s
 179   2.52281602e+07  2.51721142e+07  3.53e-11 3.17e+04  1.77e-14   170s
 180   2.52281602e+07  2.51734258e+07  3.45e-11 3.11e+04  1.74e-14   171s
 181   2.52281602e+07  2.55696243e+07  3.65e-11 2.88e+04  1.63e-14   172s
 182   2.52281602e+07  2.55603926e+07  3.57e-11 2.68e+04  1.53e-14   173s
 183   2.52281602e+07  2.55193880e+07  3.14e-11 2.51e+04  1.48e-14   174s
 184   2.52281602e+07  2.55209402e+07  3.11e-11 2.46e+04  1.45e-14   175s
 185   2.52281602e+07  2.55330947e+07  2.74e-11 2.35e+04  1.42e-14   176s
 186   2.52281602e+07  2.79383232e+07  2.66e-11 2.49e+04  1.36e-14   177s
 187   2.52281602e+07  2.77512614e+07  2.64e-11 2.32e+04  1.28e-14   178s
 188   2.52281602e+07  2.76780061e+07  2.57e-11 2.21e+04  1.23e-14   179s
 189   2.52281602e+07  6.24864344e+07  3.28e-11 5.62e+04  1.19e-14   179s
 190   2.52281602e+07  6.16226660e+07  3.10e-11 5.46e+04  1.16e-14   180s
 191   2.52281602e+07  6.11621501e+07  3.31e-11 5.08e+04  1.13e-14   181s
 192   2.52281602e+07  6.06449996e+07  3.27e-11 5.01e+04  1.11e-14   182s
 193   2.52281602e+07  6.13876912e+07  3.02e-11 5.50e+04  1.08e-14   183s
 194   2.52281602e+07  6.11127937e+07  2.93e-11 5.44e+04  1.09e-14   184s
 195   2.52281602e+07  6.04418581e+07  2.91e-11 5.36e+04  1.08e-14   185s
 196   2.52281602e+07  2.79325595e+07  1.26e-10 2.15e+04  9.91e-15   185s
 197   2.52281602e+07  2.79551749e+07  1.25e-10 2.14e+04  9.87e-15   186s
 198   2.52281602e+07  2.75659372e+07  1.24e-10 2.08e+04  9.68e-15   187s
 199   2.52281602e+07  2.95578356e+07  1.23e-10 2.01e+04  9.20e-15   188s
 200   2.52281602e+07  2.94538580e+07  1.23e-10 2.00e+04  9.18e-15   189s
 201   2.52281602e+07  2.94314886e+07  1.22e-10 1.99e+04  9.13e-15   190s
 202   2.52281602e+07  2.42351641e+07  1.25e-10 1.98e+04  9.08e-15   191s
 203   2.52281602e+07  2.43445957e+07  1.05e-08 1.98e+04  9.06e-15   192s
 204   2.52281602e+07  2.39927006e+07  1.71e-08 1.98e+04  1.12e-13   193s
 205   2.52281602e+07  2.41392640e+07  1.70e-08 1.97e+04  1.49e-13   194s
 206   2.52281602e+07  4.54260644e+07  1.72e-08 2.72e+04  1.58e-13   195s
 207   2.52281602e+07  2.71871360e+07  2.56e-08 3.25e+04  7.00e-14   196s
 208   2.52281602e+07  2.32769296e+07  3.69e-08 3.25e+04  7.02e-14   197s
 209   2.52281602e+07  2.32932553e+07  3.81e-08 3.22e+04  6.96e-14   198s
 210   2.52281602e+07  2.34418790e+07  3.78e-08 3.16e+04  7.35e-14   199s
 211   2.52281602e+07  3.83877047e+07  5.68e-08 3.05e+04  6.74e-14   200s
 212   2.52281602e+07  2.36268978e+07  4.35e-08 3.03e+04  8.41e-14   201s
 213   2.52281602e+07  2.36492419e+07  4.30e-08 2.99e+04  8.30e-14   202s
 214   2.52281602e+07  2.37722779e+07  4.28e-08 2.96e+04  8.17e-14   203s
 215   2.52281602e+07  4.17262478e+07  5.36e-08 3.39e+04  7.88e-14   204s
 216   2.52281602e+07  4.15368194e+07  5.27e-08 3.35e+04  7.78e-14   205s
 217   2.52281602e+07  4.12891942e+07  5.22e-08 3.31e+04  7.70e-14   206s
 218   2.52281602e+07  4.09789030e+07  4.97e-08 3.24e+04  7.49e-14   207s
 219   2.52281602e+07  4.08547068e+07  4.92e-08 3.20e+04  7.39e-14   208s
 220   2.52281602e+07  4.09944993e+07  4.88e-08 3.20e+04  7.16e-14   209s
 221   2.52281602e+07  4.10477434e+07  4.68e-08 3.11e+04  6.92e-14   210s
 222   2.52281602e+07  4.07239462e+07  4.50e-08 2.96e+04  6.67e-14   211s
 223   2.52281602e+07  4.02883350e+07  4.40e-08 2.87e+04  6.49e-14   212s
 224   2.52281602e+07  4.02767504e+07  4.32e-08 2.87e+04  6.46e-14   213s
 225   2.52281602e+07  3.99081512e+07  4.20e-08 2.80e+04  6.31e-14   213s
 226   2.52281602e+07  2.88416967e+07  5.19e-08 2.88e+04  6.05e-14   214s
 227   2.52281602e+07  2.87632341e+07  5.13e-08 2.82e+04  5.96e-14   215s
 228   2.52281602e+07  2.87044458e+07  5.08e-08 2.77e+04  5.87e-14   216s
 229   2.52281602e+07  2.87043274e+07  5.00e-08 2.71e+04  5.75e-14   217s
 230   2.52281602e+07  2.86756418e+07  4.90e-08 2.62e+04  5.59e-14   218s
 231   2.52281602e+07  2.87588465e+07  4.74e-08 2.38e+04  5.11e-14   219s
 232   2.52281602e+07  2.85224714e+07  4.38e-08 2.36e+04  5.02e-14   220s
 233   2.52281602e+07  2.83077980e+07  4.27e-08 2.21e+04  4.76e-14   221s
 234   2.52281602e+07  2.50780105e+07  4.32e-08 2.01e+04  4.46e-14   221s
 235   2.52281602e+07  2.51154388e+07  4.24e-08 1.98e+04  4.38e-14   222s
 236   2.52281602e+07  2.51135520e+07  4.16e-08 1.88e+04  4.23e-14   223s
 237   2.52281602e+07  2.51688215e+07  4.10e-08 1.83e+04  4.12e-14   224s
 238   2.52281602e+07  2.51421844e+07  4.01e-08 1.76e+04  3.97e-14   225s
 239   2.52281602e+07  2.53303094e+07  3.92e-08 1.72e+04  3.90e-14   226s
 240   2.52281602e+07  2.52729738e+07  3.81e-08 1.62e+04  3.75e-14   227s
 241   2.52281602e+07  2.52053145e+07  3.62e-08 1.53e+04  3.55e-14   228s
 242   2.52281602e+07  2.52033762e+07  3.54e-08 1.44e+04  3.39e-14   229s
 243   2.52281602e+07  2.52049189e+07  3.44e-08 1.38e+04  3.30e-14   230s

Barrier performed 243 iterations in 229.59 seconds (242.40 work units)
Sub-optimal termination - objective 2.52281824e+07


Root crossover log...

   78510 DPushes remaining with DInf 3.5666735e-04               230s
    2521 DPushes remaining with DInf 0.0000000e+00               230s
    1513 DPushes remaining with DInf 0.0000000e+00               235s

   38109 PPushes remaining with PInf 1.8929546e+00               235s
    7160 PPushes remaining with PInf 1.3621384e+00               240s
       0 PPushes remaining with PInf 0.0000000e+00               242s

  Push phase complete: Pinf 0.0000000e+00, Dinf 1.1238806e+05    242s


Root simplex log...

Iteration    Objective       Primal Inf.    Dual Inf.      Time
  114916    2.5228161e+07   0.000000e+00   1.123881e+05    242s
  116382    2.5228160e+07   0.000000e+00   0.000000e+00    243s
Concurrent spin time: 42.30s (can be avoided by choosing Method=3)

Solved with barrier
  116382    2.5228160e+07   0.000000e+00   0.000000e+00    285s

Root relaxation: objective 2.522816e+07, 116382 iterations, 279.58 seconds (250.34 work units)
Total elapsed time = 301.01s

    Nodes    |    Current Node    |     Objective Bounds      |     Work
 Expl Unexpl |  Obj  Depth IntInf | Incumbent    BestBd   Gap | It/Node Time

     0     0 2.5228e+07    0 5196 3.2031e+07 2.5228e+07  21.2%     -  308s
     0     0 2.5892e+07    0 4520 3.2031e+07 2.5892e+07  19.2%     - 2530s
     0     0 2.5892e+07    0 4600 3.2031e+07 2.5892e+07  19.2%     - 2578s
     0     0 2.5934e+07    0 4614 3.2031e+07 2.5934e+07  19.0%     - 4337s
     0     0 2.5934e+07    0 4675 3.2031e+07 2.5934e+07  19.0%     - 4606s
     0     0 2.5949e+07    0 4683 3.2031e+07 2.5949e+07  19.0%     - 5182s
     0     0 2.5949e+07    0 4650 3.2031e+07 2.5949e+07  19.0%     - 5244s
     0     0 2.5953e+07    0 4605 3.2031e+07 2.5953e+07  19.0%     - 6311s
     0     0 2.5953e+07    0 4701 3.2031e+07 2.5953e+07  19.0%     - 6380s
     0     0 2.5953e+07    0 4718 3.2031e+07 2.5953e+07  19.0%     - 6665s
     0     0 2.5953e+07    0 4774 3.2031e+07 2.5953e+07  19.0%     - 6880s
     0     0 2.5953e+07    0 4657 3.2031e+07 2.5953e+07  19.0%     - 7474s
     0     0 2.5953e+07    0 4727 3.2031e+07 2.5953e+07  19.0%     - 7543s
     0     0 2.6173e+07    0 4756 3.2031e+07 2.6173e+07  18.3%     - 11388s
     0     0 2.6173e+07    0 4772 3.2031e+07 2.6173e+07  18.3%     - 11673s
     0     0 2.6318e+07    0 4938 3.2031e+07 2.6318e+07  17.8%     - 15114s
     0     0 2.6318e+07    0 4993 3.2031e+07 2.6318e+07  17.8%     - 15315s
     0     0 2.6366e+07    0 5015 3.2031e+07 2.6366e+07  17.7%     - 17249s
     0     0 2.6366e+07    0 5101 3.2031e+07 2.6366e+07  17.7%     - 17392s
     0     0 2.6377e+07    0 4977 3.2031e+07 2.6377e+07  17.7%     - 19182s
     0     0 2.6377e+07    0 4973 3.2031e+07 2.6377e+07  17.7%     - 19569s
     0     0 2.6381e+07    0 4973 3.2031e+07 2.6381e+07  17.6%     - 20977s
     0     0 2.6381e+07    0 4966 3.2031e+07 2.6381e+07  17.6%     - 20979s
     0     0 2.6381e+07    0 5011 3.2031e+07 2.6381e+07  17.6%     - 22337s
     0     0 2.6381e+07    0 5198 3.2031e+07 2.6381e+07  17.6%     - 22496s
     0     0 2.6382e+07    0 5117 3.2031e+07 2.6382e+07  17.6%     - 23604s
     0     0 2.6382e+07    0 5088 3.2031e+07 2.6382e+07  17.6%     - 23878s
     0     0 2.6382e+07    0 4993 3.2031e+07 2.6382e+07  17.6%     - 24653s
     0     0 2.6382e+07    0 5033 3.2031e+07 2.6382e+07  17.6%     - 24955s
     0     0 2.6466e+07    0 4963 3.2031e+07 2.6466e+07  17.4%     - 28562s
     0     0 2.6466e+07    0 4885 3.2031e+07 2.6466e+07  17.4%     - 28925s
     0     0 2.6530e+07    0 5048 3.2031e+07 2.6530e+07  17.2%     - 35690s
     0     0 2.6530e+07    0 5055 3.2031e+07 2.6530e+07  17.2%     - 40950s
     0     0 2.6556e+07    0 5065 3.2031e+07 2.6556e+07  17.1%     - 44241s
     0     0 2.6556e+07    0 5049 3.2031e+07 2.6556e+07  17.1%     - 44698s
     0     0          -    0      3.2031e+07 2.6556e+07  17.1%     - 68049s

Cutting planes:
  Cover: 2
  Implied bound: 1227
  Clique: 3
  MIR: 490
  Flow cover: 2706
  RLT: 384
  Relax-and-lift: 589

Explored 1 nodes (4545268 simplex iterations) in 68049.99 seconds (62650.93 work units)
Thread count was 4 (of 128 available processors)

Solution count 1: 3.20314e+07 

Time limit reached
Best objective 3.203137600000e+07, best bound 2.655565266283e+07, gap 17.0949%

Solving took 	18:54:10.015
####################################################################################################
####################################################################################################
####################################################################################################
Reached timelimit, but could find a feasible solution
####################################################################################################
Description                          Value
----------------------------  ------------
Objective (min)               32,031,376.0
Cost sailing                  16,806,229.0
Cost port visits              15,750,837.0
Cost transshipment (demands)   1,389,556.0
Cost transshipment (empties)     370,766.0
Penalty delayed demands        1,973,761.0
Revenue Empties                4,356,773.0
Penalty rejected demands          97,000.0
Rejected demands (%)                  0.01
Omitted ports (%)                      0.0
Gap (%)                              17.09
####################################################################################################
Export solution
####################################################################################################
Overall time 	18:54:22.749

real	1134m24.025s
user	1143m44.543s
sys	0m40.584s
finished at Sat Mar 18 03:45:14 CET 2023
